p wcnf 127 190 191 
1 108 -12 0 
1 -10 -117 0 
1 45 -3 0 
1 57 -87 0 
1 -40 -117 0 
1 -111 -55 0 
1 -65 -15 0 
1 -90 -10 0 
1 58 -16 0 
1 -4 -43 0 
1 87 -48 0 
1 114 110 0 
1 -104 -87 0 
1 -100 2 0 
1 93 56 0 
1 -16 13 0 
1 43 -56 0 
1 30 44 0 
1 -53 -88 0 
1 38 -82 0 
1 4 35 0 
1 -67 -15 0 
1 35 107 0 
1 -86 35 0 
1 -60 120 0 
1 -22 37 0 
1 -100 -81 0 
1 -17 -103 0 
1 59 -70 0 
1 123 -1 0 
1 -61 -42 0 
1 24 54 0 
1 -67 -91 0 
1 -14 45 0 
1 -57 64 0 
1 -105 116 0 
1 68 -115 0 
1 33 38 0 
1 114 -104 0 
1 -75 34 0 
1 28 118 0 
1 -88 -77 0 
1 -56 -118 0 
1 -73 -85 0 
1 -105 50 0 
1 -90 -52 0 
1 69 44 0 
1 -65 -96 0 
1 -40 -10 0 
1 -111 -70 0 
1 -49 -3 0 
1 90 -73 0 
1 -46 105 0 
1 -40 29 0 
1 -14 -83 0 
1 -127 94 0 
1 117 -8 0 
1 102 25 0 
1 20 -84 0 
1 51 89 0 
1 -57 -76 0 
1 123 -119 0 
1 16 -99 0 
1 27 -88 0 
1 -77 105 0 
1 102 36 0 
1 -24 33 0 
1 95 85 0 
1 -39 105 0 
1 53 -39 0 
1 50 -37 0 
1 -53 93 0 
1 -62 9 0 
1 -117 63 0 
1 77 -111 0 
1 106 -95 0 
1 127 4 0 
1 -127 -16 0 
1 113 89 0 
1 115 -29 0 
1 -58 -120 0 
1 -27 90 0 
1 55 -114 0 
1 -62 -115 0 
1 -30 -34 0 
1 -13 21 0 
1 -95 -59 0 
1 -2 37 0 
1 -115 6 0 
1 9 -2 0 
1 73 -40 0 
1 102 25 0 
1 -41 -127 0 
1 -115 109 0 
1 -65 113 0 
1 77 -10 0 
1 124 -22 0 
1 -22 56 0 
1 125 -39 0 
1 86 11 0 
1 -116 124 0 
1 28 -122 0 
1 -110 10 0 
1 -91 54 0 
1 -18 17 0 
1 7 125 0 
1 102 -109 0 
1 37 -98 0 
1 -26 48 0 
1 -30 121 0 
1 27 -82 0 
1 38 -50 0 
1 -35 -116 0 
1 22 94 0 
1 44 -8 0 
1 -44 -6 0 
1 -58 47 0 
1 68 -26 0 
1 -24 -48 0 
1 -22 119 0 
1 -80 10 0 
1 45 114 0 
1 -13 -12 0 
1 43 -84 0 
1 -104 -24 0 
1 -115 3 0 
1 105 66 0 
1 -59 72 0 
1 -114 127 0 
1 -61 96 0 
1 64 76 0 
1 -1 77 0 
1 -119 39 0 
1 112 -68 0 
1 -96 -4 0 
1 77 -10 0 
1 -68 -34 0 
1 110 120 0 
1 -11 -84 0 
1 -50 -112 0 
1 115 -47 0 
1 -58 127 0 
1 -104 18 0 
1 -57 39 0 
1 103 100 0 
1 -88 59 0 
1 62 -11 0 
1 64 -67 0 
1 88 -100 0 
1 63 101 0 
1 59 -68 0 
1 82 41 0 
1 92 98 0 
1 17 -20 0 
1 35 104 0 
1 30 -86 0 
1 8 31 0 
1 90 -79 0 
1 -27 49 0 
1 96 22 0 
1 -118 109 0 
1 -69 52 0 
1 114 102 0 
1 -118 -39 0 
1 11 109 0 
1 8 80 0 
1 -70 -46 0 
1 61 72 0 
1 -68 -22 0 
1 -34 -61 0 
1 -114 -61 0 
1 63 -28 0 
1 -75 -89 0 
1 62 81 0 
1 84 -77 0 
1 74 -117 0 
1 -89 46 0 
1 -16 -110 0 
1 -97 79 0 
1 21 1 0 
1 67 21 0 
1 15 27 0 
1 -124 -39 0 
1 -32 98 0 
1 37 48 0 
1 -56 35 0 
1 -101 -108 0 
1 28 60 0 
1 -96 -25 0 
1 40 30 0 
